<instance format="XCSP3" type="CSP">
  <variables>
    <var id="x0"> 1 14 16 </var>
    <var id="x1"> 1..3 11 </var>
    <var id="x2"> 2 12 </var>
    <var id="x3"> 1 7 12 </var>
    <var id="x4"> 1 2 7 12 </var>
    <var id="x5"> 2 3 12 14 16 </var>
    <var id="x6"> 3 16 </var>
    <var id="x7"> 3 7 16 </var>
    <var id="x8"> 6 7 12 16 17 </var>
    <var id="x9"> 4 7 14..16 </var>
    <var id="x10"> 7 14 15 </var>
    <var id="x11"> 4 7 12 17 </var>
    <var id="x12"> 6 7 12 16 </var>
    <var id="x13"> 6 7 12 14 15 </var>
    <var id="x14"> 4 6 15 16 </var>
    <var id="x15"> 4 6 7 16 </var>
    <var id="x16"> 2 3 7 13 </var>
    <var id="x17"> 0 6 13 </var>
    <var id="x18"> 2 3 6 </var>
    <var id="x19"> 0 2 6 9 12 </var>
    <var id="x20"> 0 2 7 12 13 </var>
    <var id="x21"> 0 2 3 6 12 </var>
    <var id="x22"> 7 12 </var>
    <var id="x23"> 3 6 7 9 </var>
    <var id="x24"> 12..14 </var>
    <var id="x25"> 4 5 12 13 17 </var>
    <var id="x26"> 0 4 6 12 14 </var>
    <var id="x27"> 4..6 17 </var>
    <var id="x28"> 6 12 13 </var>
    <var id="x29"> 0 6 12 14 </var>
    <var id="x30"> 0 4 6 13 </var>
    <var id="x31"> 12 14 17 </var>
    <var id="x32"> 5 8 12 </var>
    <var id="x33"> 1 2 5 11 </var>
    <var id="x34"> 1 10 15 </var>
    <var id="x35"> 2 12 </var>
    <var id="x36"> 1 11 12 </var>
    <var id="x37"> 10 15 </var>
    <var id="x38"> 1 11 12 15 </var>
    <var id="x39"> 1 8 10 </var>
    <var id="x40"> 5 8 16 17 </var>
    <var id="x41"> 3 13 15 16 </var>
    <var id="x42"> 1 13 16 17 </var>
    <var id="x43"> 1 3 5 17 </var>
    <var id="x44"> 1 5 13 </var>
    <var id="x45"> 3 8 17 </var>
    <var id="x46"> 8 15 </var>
    <var id="x47"> 1 3 8 17 </var>
    <var id="x48"> 5..7 12 </var>
    <var id="x49"> 1 6 14 </var>
    <var id="x50"> 1 2 4..6 </var>
    <var id="x51"> 1 7 14 </var>
    <var id="x52"> 2 4..6 12 </var>
    <var id="x53"> 4..7 </var>
    <var id="x54"> 4 14 </var>
    <var id="x55"> 1 7 12 14 </var>
    <var id="x56"> 9 16 </var>
    <var id="x57"> 1 3 13 14 16 </var>
    <var id="x58"> 1 4 13 </var>
    <var id="x59"> 0 3 4 14 16 </var>
    <var id="x60"> 1 9 13 16 </var>
    <var id="x61"> 0 3 4 9 14 </var>
    <var id="x62"> 0 9 14 </var>
    <var id="x63"> 1 14 16 </var>
    <var id="x64"> 0 5 10 12 13 </var>
    <var id="x65"> 0 3 4 12 </var>
    <var id="x66"> 3..5 </var>
    <var id="x67"> 9 12 13 </var>
    <var id="x68"> 0 3 4 9 </var>
    <var id="x69"> 0 9 12 </var>
    <var id="x70"> 3 9 10 </var>
    <var id="x71"> 3..5 9 </var>
    <var id="x72"> 12..14 16 </var>
    <var id="x73"> 10 13 14 </var>
    <var id="x74"> 10 12 13 </var>
    <var id="x75"> 9 12 13 16 </var>
    <var id="x76"> 8 9 12 14 </var>
    <var id="x77"> 8..10 14 </var>
    <var id="x78"> 8 9 16 </var>
    <var id="x79"> 3 14 15 </var>
    <var id="x80"> 1 3 14 </var>
    <var id="x81"> 1 6 14 17 </var>
    <var id="x82"> 6 8 </var>
    <var id="x83"> 3 6 15 17 </var>
    <var id="x84"> 1 11 14 15 17 </var>
    <var id="x85"> 1 3 6 8 14 17 </var>
    <var id="x86"> 3 6 8 </var>
    <var id="x87"> 2 3 16 </var>
    <var id="x88"> 0 6 16 </var>
    <var id="x89"> 3 7 15 </var>
    <var id="x90"> 3 6 7 15 16 </var>
    <var id="x91"> 6 7 16 </var>
    <var id="x92"> 0 3 8 </var>
    <var id="x93"> 0 6..8 15 </var>
    <var id="x94"> 0 3 6 15 16 </var>
    <var id="x95"> 6 8 9 16 17 </var>
    <var id="x96"> 2 3 16 </var>
    <var id="x97"> 2 3 6 17 </var>
    <var id="x98"> 10 17 </var>
    <var id="x99"> 2 10 </var>
    <var id="x100"> 3 6 16 17 </var>
    <var id="x101"> 3 6 10 16 </var>
    <var id="x102"> 3 6 8..10 17 </var>
    <var id="x103"> 5..7 17 </var>
    <var id="x104"> 0 4 6 </var>
    <var id="x105"> 0 4 17 </var>
    <var id="x106"> 0 4 6 </var>
    <var id="x107"> 1 7 17 </var>
    <var id="x108"> 1 6 17 </var>
    <var id="x109"> 4..7 </var>
    <var id="x110"> 4 7 15 16 </var>
    <var id="x111"> 1 16 </var>
    <var id="x112"> 1 7 15 </var>
    <var id="x113"> 0 4 6 </var>
    <var id="x114"> 1 4 7 17 </var>
    <var id="x115"> 0 1 7 </var>
    <var id="x116"> 0 4 6 16 </var>
    <var id="x117"> 1 7 15..17 </var>
    <var id="x118"> 3 7 13 14 16 </var>
    <var id="x119"> 13 14 16 </var>
    <var id="x120"> 3 5 11 </var>
    <var id="x121"> 5 </var>
    <var id="x122"> 5 7 10 13 </var>
    <var id="x123"> 3 11 14 </var>
    <var id="x124"> 7 14 </var>
    <var id="x125"> 3 10 13 16 </var>
    <var id="x126"> 6 7 9 </var>
    <var id="x127"> 3 4 7 14 </var>
    <var id="x128"> 4 6 9 </var>
    <var id="x129"> 1 7 </var>
    <var id="x130"> 3 4 6 7 </var>
    <var id="x131"> 3 4 9 14 </var>
    <var id="x132"> 3 4 6 7 9 </var>
    <var id="x133"> 12 13 16 </var>
    <var id="x134"> 4 6 17 </var>
    <var id="x135"> 7 13 </var>
    <var id="x136"> 4 6 9 12 </var>
    <var id="x137"> 7 12 13 </var>
    <var id="x138"> 4 6 7 16 17 </var>
    <var id="x139"> 6 7 9 12 13 16 </var>
    <var id="x140"> 6 9 17 </var>
  </variables>
  <constraints>
    <group>
      <allDifferent> %... </allDifferent>
      <args> x0 x1 x2 x3 x4 x5 x6 x7 </args>
      <args> x8 x9 x10 x11 x12 x13 x14 x15 </args>
      <args> x16 x17 x18 x19 x20 x21 x22 x23 </args>
      <args> x24 x25 x26 x27 x28 x29 x30 x31 </args>
      <args> x32 x33 x34 x35 x36 x37 x38 x39 </args>
      <args> x40 x41 x42 x43 x44 x45 x46 x47 </args>
      <args> x48 x49 x50 x51 x52 x53 x54 x55 </args>
      <args> x56 x57 x58 x59 x60 x61 x62 x63 </args>
      <args> x64 x65 x66 x67 x68 x69 x70 x71 </args>
      <args> x72 x73 x74 x75 x76 x77 x78 </args>
      <args> x79 x80 x81 x82 x83 x84 x85 x86 </args>
      <args> x87 x88 x89 x90 x91 x92 x93 x94 </args>
      <args> x95 x96 x97 x98 x99 x100 x101 x102 </args>
      <args> x103 x104 x105 x106 x107 x108 x109 </args>
      <args> x110 x111 x112 x113 x114 x115 x116 x117 </args>
      <args> x118 x119 x120 x121 x122 x123 x124 x125 </args>
      <args> x126 x127 x128 x129 x130 x131 x132 </args>
      <args> x133 x134 x135 x136 x137 x138 x139 x140 </args>
      <args> x8 x32 x40 x48 x56 x95 x103 x126 </args>
      <args> x9 x16 x41 x79 x96 x110 x118 x127 </args>
      <args> x24 x57 x72 x80 x87 x111 x133 </args>
      <args> x0 x17 x42 x49 x81 x88 x119 </args>
      <args> x1 x18 x33 x43 x50 x97 x120 x134 </args>
      <args> x10 x34 x51 x73 x89 x112 x135 </args>
      <args> x2 x19 x52 x82 x113 x121 x128 x136 </args>
      <args> x3 x11 x25 x58 x74 x98 x114 x122 </args>
      <args> x4 x20 x44 x64 x99 x115 x129 x137 </args>
      <args> x5 x21 x26 x35 x59 x65 x104 x116 </args>
      <args> x27 x53 x66 x83 x90 x100 x130 x138 </args>
      <args> x12 x28 x36 x60 x67 x75 x91 x139 </args>
      <args> x45 x54 x61 x68 x92 x105 x123 x131 </args>
      <args> x13 x29 x46 x62 x69 x76 x93 x124 </args>
      <args> x6 x14 x30 x37 x94 x101 x106 x125 </args>
      <args> x22 x31 x38 x55 x63 x84 x107 x117 </args>
      <args> x39 x47 x70 x77 x85 x102 x108 x140 </args>
      <args> x7 x15 x23 x71 x78 x86 x109 x132 </args>
    </group>
  </constraints>
</instance>

